<number of tasks>
50

<cycle time>
1000

<order strength>
0.195


<task times>
1 29
2 289
3 163
4 31
5 194
6 239
7 24
8 186
9 162
10 113
11 181
12 97
13 184
14 202
15 138
16 238
17 183
18 82
19 159
20 31
21 42
22 93
23 156
24 38
25 53
26 205
27 26
28 109
29 37
30 148
31 251
32 61
33 91
34 242
35 179
36 93
37 176
38 125
39 169
40 96
41 51
42 36
43 173
44 34
45 42
46 203
47 84
48 238
49 310
50 118

<precedence relations>
1,5
2,7
3,6
3,8
3,9
4,38
5,10
6,13
6,15
7,16
8,14
9,11
9,12
10,35
11,17
12,18
13,20
13,50
14,39
16,19
17,23
18,24
18,25
18,40
19,21
19,22
19,26
19,27
21,35
22,35
23,29
24,30
25,31
26,32
26,33
26,34
27,28
28,35
29,38
30,39
31,36
32,37
33,42
34,40
34,41
35,43
35,44
35,45
35,46
35,47
36,48
37,49
39,50

<end>
